p cnf 30 45
-24 -27 -7 
-14 -4 17 
23 25 -27 
1 20 -16 
-4 -6 17 
-20 -21 -21 
-10 5 26 
-9 25 26 
-25 30 -4 
4 24 -25 
7 -10 -15 
-11 -27 -16 
20 -28 5 
9 -6 18 
23 -27 11 
15 -30 4 
-25 11 -4 
-16 8 -22 
23 -24 -11 
-17 4 6 
-8 24 28 
20 -14 -21 
20 7 21 
-27 27 -1 
-2 -29 5 
3 30 -8 
30 26 -19 
6 -2 23 
18 26 -13 
-17 -12 15 
-27 -13 6 
10 3 18 
-21 -4 -8 
-15 22 23 
1 20 -7 
10 21 23 
-15 -3 -1 
18 -27 7 
15 -4 3 
-20 15 25 
-6 -13 11 
-7 30 7 
7 22 30 
21 9 24 
-17 27 11 

